c [-1,2,3,-4,5,6,7,-8,-9,-10]
p cnf 10 33
 4 -8 9 -2 0
3 8 -5 1 0
-5 -8 -1 10 0
-2 7 -6 8 0
-1 -3 -7 0
-2 -9 7 0
1 9 5 0
-6 9 5 0
1 -5 -4 0
8 -10 3 0
-3 1 2 0
-6 -7 -8 0
-8 -4 0
-8 -5 10 0
1 2 8 -9 0
-8 4 7 0
-8 -9 4 0
-4 7 -5 0
2 -7 -4 0
-10 -1 8 0
2 -5 -1 0
9 6 1 -2 0
1 2 -7 0
9 -5 3 0
-2 -9 -7 0
-8 -3 2 0
-2 3 4 0
-10 4 0
6 -8 4 3 0
10 5 -7 0
2 4 -9 -8 0
-1 7 -5 0
5 -1 7 0

